(set-info :origin "driver benchmark extracted from Microsoft SDV")
(set-logic HORN)
(declare-fun Proc27 (Int Int Int Bool Int) Bool)
(declare-fun Proc24 (Int Int Int Bool Int) Bool)
(declare-fun Proc13 (Int Int Int Bool Int Int) Bool)
(declare-fun Proc3 (Int Int Int Bool Int Int Int Int) Bool)
(declare-fun Proc1 (Int Int Int Bool Int) Bool)
(declare-fun Proc14 (Int Int Int Bool Int Int Int Bool Int) Bool)
(declare-fun Proc9 (Int Int Int Bool) Bool)
(declare-fun Proc23 (Int Int Int Bool Int) Bool)
(declare-fun Proc21 (Int Int Int Bool Int) Bool)
(declare-fun Proc35 (Int Int Int Bool Int Bool Int Int Int) Bool)
(declare-fun Proc34 (Int Int Int Bool) Bool)
(declare-fun Proc0 (Int Int Int Bool Int) Bool)
(declare-fun Proc22 (Int Int Int Bool Int) Bool)
(declare-fun Proc8 (Int Int Int Bool Int Int Int) Bool)
(declare-fun Proc32 (Int Int Int Bool Int) Bool)
(declare-fun Proc25 (Int Int Int Bool Int) Bool)
(declare-fun Proc31 (Int Int Int Bool Int Int Int Int) Bool)
(declare-fun Proc5 (Int Int Int Bool Int Int) Bool)
(declare-fun Proc10 (Int Int Int Bool) Bool)
(declare-fun Proc16 (Int Int Int Bool Int) Bool)
(declare-fun Proc20 (Int Int Int Bool Int) Bool)
(declare-fun Proc29 (Int Int Int Bool Int) Bool)
(declare-fun Proc11 (Int Int Int Bool Int Int) Bool)
(declare-fun Proc19 (Int Int Int Bool Int) Bool)
(declare-fun Proc18 (Int Int Int Bool Int) Bool)
(declare-fun Proc4 (Int Int Int Bool Int Int Int Int Int) Bool)
(declare-fun Proc12 (Int Int Int Bool Int) Bool)
(declare-fun Proc26 (Int Int Int Bool Int) Bool)
(declare-fun Proc6 (Int Int Int Bool Int Int Int) Bool)
(declare-fun Proc30 (Int Int Int Bool) Bool)
(declare-fun Proc17 (Int Int Int Bool Int) Bool)
(declare-fun Proc15 (Int Int Int Bool Int) Bool)
(declare-fun Proc2 (Int Int Int Bool Int Int Int Int) Bool)
(declare-fun Proc33 (Int Int Int Bool Int Int Int Int Int) Bool)
(declare-fun Proc7 (Int Int Int Bool Int) Bool)
(declare-fun Proc28 (Int Int Int Bool Int Int) Bool)
(assert (forall ((A Int)
         (B Int)
         (C Int)
         (D Int)
         (E Int)
         (F Int)
         (G Int)
         (H Int)
         (I Int)
         (J Int)
         (K Int)
         (L Bool))
  (let ((a!1 (or (not L)
                 (not (Proc0 K J I L H))
                 (not (Proc1 K J I L H))
                 (= G 0)
                 (= F 0)
                 (not (Proc2 K J I L E H D C))
                 (not (and (= B D) (= A C))))))
    (=> (not a!1) (Proc3 K J I L G H B A)))))
(assert (forall ((A Int)
         (B Int)
         (C Int)
         (D Int)
         (E Int)
         (F Int)
         (G Int)
         (H Int)
         (I Int)
         (J Int)
         (K Int)
         (L Bool)
         (M Int)
         (N Int)
         (O Int)
         (P Int)
         (Q Int)
         (R Int)
         (S Int)
         (T Int)
         (U Int)
         (V Int))
  (let ((a!1 (and (not (<= T (+ 4 V))) (not (<= T U))))
        (a!2 (or (not (Proc4 T R Q L P S O V N)) (not (and (= M 259) (= K T)))))
        (a!4 (or (not (Proc4 T R Q L J S I V H)) (not (and (= M 259) (= K T)))))
        (a!6 (or (not (Proc4 T R Q L G S F V E)) (not (and (= M 259) (= K T)))))
        (a!8 (or (not (Proc4 T R Q L D S C V B)) (not (and (= M 259) (= K T))))))
  (let ((a!3 (and a!2 (not (and (= M 259) (= K T)))))
        (a!5 (and a!4 (not (and (= M 259) (= K T)))))
        (a!7 (and a!6 (not (and (= M 259) (= K T)))))
        (a!9 (and a!8 (not (and (= M 259) (= K T))))))
  (let ((a!10 (or (not L)
                  (not (= V U))
                  (not a!1)
                  (and (or (= S 0) a!3)
                       (or (= S 0) a!5)
                       (or (= S 0) a!7)
                       (or (= S 0) a!9)))))
    (=> (not a!10) (Proc2 U R Q L A S M K)))))))
(assert (forall ((A Int) (B Int) (C Int) (D Int) (L Bool)) (=> L (Proc0 D C B L A))))
(assert (forall ((A Int)
         (B Int)
         (C Int)
         (D Int)
         (E Int)
         (F Int)
         (G Int)
         (H Int)
         (I Int)
         (L Bool))
  (let ((a!1 (and (not (<= G (+ 1 I))) (not (<= G H)))))
  (let ((a!2 (or (not L)
                 (not (= I H))
                 (not a!1)
                 (not (Proc5 G F E L I D))
                 (not (and (= C G) (= B D))))))
    (=> (not a!2) (Proc6 H F E L A C B))))))
(assert (forall ((A Int) (B Int) (C Int) (D Int) (E Int) (L Bool))
  (let ((a!1 (not (or (not L) (not (= E 1))))))
    (=> a!1 (Proc5 D C B L A E)))))
(assert (forall ((A Int) (B Int) (C Int) (D Int) (L Bool)) (=> false (Proc7 D C B L A))))
(assert (forall ((A Int)
         (B Int)
         (C Int)
         (D Int)
         (E Int)
         (F Int)
         (G Int)
         (H Int)
         (I Int)
         (J Int)
         (K Int)
         (L Bool)
         (M Int))
  (let ((a!1 (or (not (= G 1))
                 (not (and (= F G) (= E H)))
                 (not (and (= D E) (= C F)))))
        (a!2 (or (= G 1)
                 (not (and (= F G) (= E H)))
                 (not (and (= D E) (= C F)))))
        (a!3 (and (not (<= A (+ 1 B))) (not (<= A K)))))
  (let ((a!4 (or (not (= M 0))
                 (not (= B K))
                 (not a!3)
                 (not (Proc7 A M J L B))
                 (not (and (= F J) (= E A)))
                 (not (and (= D E) (= C F))))))
  (let ((a!5 (and (or (= M 0) (not (Proc6 K M J L I H G)) (and a!1 a!2)) a!4)))
    (=> (not (or (not L) a!5)) (Proc8 K M J L I D C)))))))
(assert (forall ((A Int) (B Int) (C Int) (L Bool)) (=> L (Proc9 C B A L))))
(assert (forall ((A Int) (B Int) (C Int) (L Bool)) (=> L (Proc10 C B A L))))
(assert (forall ((A Int) (B Int) (C Int) (D Int) (E Int) (L Bool))
  (let ((a!1 (or (not L) (not (and (= E 0) (= D 0))))))
    (=> (not a!1) (Proc11 C B A L E D)))))
(assert (forall ((A Int)
         (B Int)
         (C Int)
         (D Int)
         (E Int)
         (F Int)
         (G Int)
         (H Int)
         (I Int)
         (J Int)
         (K Int)
         (L Bool)
         (M Int)
         (N Int)
         (O Int)
         (P Int)
         (W Bool)
         (X Bool)
         (Y Bool))
  (let ((a!1 (not (and (not (<= P 0)) (Proc12 P O N Y M))))
        (a!2 (not (and (= E G) (= D K) (= C H) (= W X) (= B I)))))
  (let ((a!3 (or (= H 0) (not (and (= G F) (not X))) a!2))
        (a!4 (or (not (and (= H 0) (= L Y))) (not (and (= G A) (= X L))) a!2)))
  (let ((a!5 (and (or (= H 1) (and a!3 a!4)) (or (not (= H 1)) (and a!3 a!4)))))
  (let ((a!6 (not (or (not Y)
                      a!1
                      (not (Proc11 M O N Y K J))
                      (not (Proc10 M K J Y))
                      (not (Proc9 M K J Y))
                      (not (Proc13 M K J Y I H))
                      a!5))))
    (=> a!6 (Proc14 P O N Y E D C W B))))))))
(assert (forall ((A Int) (B Int) (C Int) (D Int) (L Bool))
  (let ((a!1 (not (or (not L) (not (= D 1))))))
    (=> a!1 (Proc15 C B A L D)))))
(assert (forall ((A Int) (B Int) (C Int) (D Int) (L Bool))
  (let ((a!1 (not (or (not L) (not (= D 0))))))
    (=> a!1 (Proc16 C B A L D)))))
(assert (forall ((A Int) (B Int) (C Int) (D Int) (L Bool))
  (let ((a!1 (not (or (not L) (not (= D 1))))))
    (=> a!1 (Proc17 C B A L D)))))
(assert (forall ((A Int) (B Int) (C Int) (D Int) (L Bool))
  (let ((a!1 (not (or (not L) (not (= D 0))))))
    (=> a!1 (Proc18 C B A L D)))))
(assert (forall ((A Int) (B Int) (C Int) (D Int) (L Bool))
  (let ((a!1 (not (or (not L) (not (= D 1))))))
    (=> a!1 (Proc19 C B A L D)))))
(assert (forall ((A Int) (B Int) (C Int) (D Int) (L Bool))
  (let ((a!1 (not (or (not L) (not (= D 0))))))
    (=> a!1 (Proc20 C B A L D)))))
(assert (forall ((A Int) (B Int) (C Int) (D Int) (L Bool))
  (let ((a!1 (not (or (not L) (not (= D 0))))))
    (=> a!1 (Proc21 C B A L D)))))
(assert (forall ((A Int) (B Int) (C Int) (D Int) (L Bool))
  (let ((a!1 (not (or (not L) (not (= D 1))))))
    (=> a!1 (Proc22 C B A L D)))))
(assert (forall ((A Int) (B Int) (C Int) (D Int) (L Bool))
  (let ((a!1 (not (or (not L) (not (= D 0))))))
    (=> a!1 (Proc23 C B A L D)))))
(assert (forall ((A Int) (B Int) (C Int) (D Int) (L Bool))
  (let ((a!1 (not (or (not L) (not (= D 0))))))
    (=> a!1 (Proc24 C B A L D)))))
(assert (forall ((A Int) (B Int) (C Int) (D Int) (L Bool))
  (let ((a!1 (not (or (not L) (not (= D 0))))))
    (=> a!1 (Proc25 C B A L D)))))
(assert (forall ((A Int) (B Int) (C Int) (D Int) (E Int) (L Bool))
  (let ((a!1 (or (not L) (not (= E (- 1073741823))) (not (= D E)))))
    (=> (not a!1) (Proc26 C B A L D)))))
(assert (forall ((A Int) (B Int) (C Int) (D Int) (L Bool))
  (let ((a!1 (not (or (not L) (not (= D 0))))))
    (=> a!1 (Proc27 C B A L D)))))
(assert (forall ((A Int) (B Int) (C Int) (D Int) (L Bool)) (=> L (Proc1 D C B L A))))
(assert (forall ((A Int)
         (B Int)
         (C Int)
         (D Int)
         (E Int)
         (F Int)
         (G Int)
         (H Int)
         (I Int)
         (L Bool))
  (let ((a!1 (and (or (not (= I H)) (not (= G I)))
                  (or (not (= I F)) (not (= G I)))
                  (or (not (= I E)) (not (= G I))))))
    (=> (not (or (not L) a!1)) (Proc28 D C B L A G)))))
(assert (forall ((A Int)
         (B Int)
         (C Int)
         (D Int)
         (E Int)
         (F Int)
         (G Int)
         (H Int)
         (I Int)
         (J Int)
         (K Int)
         (L Bool)
         (M Int)
         (N Int)
         (O Int)
         (P Int)
         (Q Int)
         (R Int)
         (S Int)
         (T Int)
         (U Int)
         (V Int))
  (let ((a!1 (not (Proc31 P T S L O V N M)))
        (a!2 (not (and (= I K) (= H N) (= G M)))))
  (let ((a!3 (or (not (and (= M 1) (= K J))) a!2)))
  (let ((a!4 (and a!3 (or (= M 1) (= V 0) (not (= K O)) a!2))))
  (let ((a!5 (or (= R 0)
                 (not (Proc26 U T S L Q))
                 (not (and (= P U) (= O Q)))
                 a!1
                 a!4))
        (a!6 (or (= R 0)
                 (not (Proc26 U T S L F))
                 (not (and (= P U) (= O F)))
                 a!1
                 a!4))
        (a!7 (or (not (Proc26 U T S L E)) (not (and (= P U) (= O E))) a!1 a!4))
        (a!8 (or (not (Proc26 U T S L D)) (not (and (= P U) (= O D))) a!1 a!4))
        (a!9 (or (= R 0)
                 (not (Proc32 U T S L V))
                 (not (Proc3 U T S L C V B A))
                 (not (and (= P A) (= O B)))
                 a!1
                 a!4)))
  (let ((a!10 (not (or (not L)
                       (= V 0)
                       (not (Proc29 U T S L V))
                       (= R 0)
                       (not (Proc30 U T S L))
                       (and a!5 a!6 a!7 a!8 a!9)))))
    (=> a!10 (Proc33 U T S L C V I H G)))))))))
(assert (forall ((A Int)
         (B Int)
         (C Int)
         (D Int)
         (E Int)
         (F Int)
         (G Int)
         (H Int)
         (I Int)
         (L Bool))
  (let ((a!1 (not (or (not L) (not (Proc28 I H G L F E)) (not (= D 0))))))
    (=> a!1 (Proc4 I H G L C F B A D)))))
(assert (forall ((A Int) (B Int) (C Int) (D Int) (E Int) (L Bool))
  (=> (not (or (not L) (= E 0) (= D 0))) (Proc32 C B A L E))))
(assert (forall ((A Int) (B Int) (C Int) (D Int) (L Bool))
  (=> (not (or (not L) (= D 0))) (Proc29 C B A L D))))
(assert (forall ((A Int)
         (B Int)
         (C Int)
         (D Int)
         (E Int)
         (F Int)
         (G Int)
         (H Int)
         (I Int)
         (J Int)
         (K Int)
         (L Bool)
         (M Int)
         (N Int)
         (O Int)
         (P Int)
         (Q Int)
         (R Int)
         (S Int)
         (T Int)
         (U Int)
         (V Int)
         (Z Int)
         (A1 Int)
         (B1 Int))
  (let ((a!1 (or (not (and (= I Z) (= H B1))) (not (and (= G H) (= F I)))))
        (a!2 (or (not (= A 1))
                 (not (and (= I A) (= H B)))
                 (not (and (= G H) (= F I)))))
        (a!3 (or (= A 1)
                 (not (and (= I A) (= H B)))
                 (not (and (= G H) (= F I)))))
        (a!4 (or (not (= V 0))
                 (not (and (= I Z) (= H B1)))
                 (not (and (= G H) (= F I))))))
  (let ((a!5 (and a!1
                  (or (= V 0)
                      (not (Proc34 B1 A1 Z L))
                      (not (Proc33 B1 A1 Z L E D C B A))
                      (and a!2 a!3))
                  a!4)))
  (let ((a!6 (not (or (not L)
                      (not (Proc17 B1 A1 Z L V))
                      (not (Proc24 B1 A1 Z L U))
                      (not (Proc18 B1 A1 Z L T))
                      (not (Proc23 B1 A1 Z L S))
                      (not (Proc16 B1 A1 Z L R))
                      (not (Proc20 B1 A1 Z L Q))
                      (not (Proc27 B1 A1 Z L P))
                      (not (Proc25 B1 A1 Z L O))
                      (not (Proc15 B1 A1 Z L N))
                      (not (Proc21 B1 A1 Z L M))
                      (not (Proc22 B1 A1 Z L K))
                      (not (Proc19 B1 A1 Z L J))
                      a!5))))
    (=> a!6 (Proc13 B1 A1 Z L G F)))))))
(assert (forall ((A Int) (B Int) (C Int) (L Bool)) (=> L (Proc30 C B A L))))
(assert (forall ((A Int)
         (B Int)
         (C Int)
         (D Int)
         (E Int)
         (F Int)
         (G Int)
         (H Int)
         (I Int)
         (J Int)
         (K Int)
         (L Bool))
  (let ((a!1 (and (not (<= I (+ 1 K))) (not (<= I J))))
        (a!2 (or (not (= E 1)) (not (and (= D F) (= C E)))))
        (a!3 (or (= E 1) (not (and (= D F) (= C E))))))
  (let ((a!4 (not (or (not L)
                      (not (= K J))
                      (not a!1)
                      (not (Proc8 I H G L K F E))
                      (and a!2 a!3)))))
    (=> a!4 (Proc31 J H G L B A D C))))))
(assert (forall ((A Int) (B Int) (C Int) (L Bool)) (=> L (Proc34 C B A L))))
(assert (forall ((A Int)
         (B Int)
         (C Int)
         (D Int)
         (E Int)
         (F Int)
         (G Int)
         (H Int)
         (I Int)
         (J Int)
         (K Int)
         (L Bool)
         (M Int)
         (N Int)
         (O Int)
         (P Int)
         (Q Int)
         (R Int)
         (S Int)
         (T Int)
         (U Int)
         (V Int)
         (Z Int)
         (A1 Int)
         (B1 Int)
         (C1 Int)
         (D1 Int)
         (E1 Int)
         (F1 Int)
         (G1 Int)
         (H1 Int)
         (I1 Int)
         (J1 Int)
         (K1 Int)
         (L1 Int)
         (M1 Int)
         (N1 Int)
         (O1 Int)
         (P1 Int)
         (Q1 Int)
         (R1 Int)
         (S1 Int)
         (T1 Int)
         (U1 Int)
         (V1 Int)
         (W1 Int)
         (X1 Int)
         (Y1 Int)
         (Z1 Int)
         (A2 Int)
         (B2 Int)
         (C2 Int)
         (D2 Int)
         (E2 Int)
         (F2 Int))
  (let ((a!1 (and (not (<= D2 (+ 4 F2))) (not (<= D2 E2))))
        (a!2 (and (= C2 D2)
                  (not (<= B2 (+ 332 C2)))
                  (not (<= B2 D2))
                  (= A2 B2)
                  (not (<= Z1 (+ 4 A2)))
                  (not (<= Z1 B2))
                  (= Y1 Z1)
                  (not (<= X1 (+ 536 Y1)))))
        (a!3 (and (not (<= X1 Z1))
                  (= W1 X1)
                  (not (<= V1 (+ 240 W1)))
                  (not (<= V1 X1))
                  (= U1 V1)
                  (not (<= T1 (+ 240 U1)))
                  (not (<= T1 V1))
                  (= S1 T1)
                  (not (<= R1 (+ 536 S1)))
                  (not (<= R1 T1))
                  (= Q1 R1)
                  (not (<= P1 (+ 240 Q1)))
                  (not (<= P1 R1))
                  (= O1 P1)
                  (not (<= N1 (+ 4 O1)))
                  (not (<= N1 P1))
                  (= M1 N1)
                  (not (<= L1 (+ 536 M1)))
                  (not (<= L1 N1))
                  (= K1 L1)
                  (not (<= J1 (+ 332 K1)))
                  (not (<= J1 L1))
                  (= I1 J1)
                  (not (<= H1 (+ 240 I1)))
                  (not (<= H1 J1))
                  (= G1 H1)
                  (not (<= F1 (+ 240 G1)))
                  (not (<= F1 H1))
                  (= E1 F1)
                  (not (<= D1 (+ 332 E1)))
                  (not (<= D1 F1))
                  (= C1 D1)
                  (not (<= B1 (+ 4 C1)))
                  (not (<= B1 D1))
                  (= A1 B1)
                  (not (<= Z (+ 536 A1)))
                  (not (<= Z B1))
                  (= V Z)
                  (not (<= U (+ 240 V)))
                  (not (<= U Z))
                  (= T U)
                  (not (<= S (+ 240 T)))
                  (not (<= S U))
                  (= R S)
                  (not (<= Q (+ 240 R)))
                  (not (<= Q S))
                  (= P Q)
                  (not (<= O (+ 240 P)))
                  (not (<= O Q))
                  (= N O)
                  (not (<= M (+ 240 N)))
                  (not (<= M O))
                  (= K M)
                  (not (<= J (+ 40 K)))
                  (not (<= J M))
                  (= I J)
                  (not (<= H (+ 332 I)))
                  (not (<= H J))
                  (= G H)
                  (not (<= F (+ 4 G)))
                  (not (<= F H))
                  (= E F)
                  (not (<= D (+ 40 E)))
                  (not (<= D F)))))
  (let ((a!4 (not (or (not L)
                      (not (= F2 E2))
                      (not a!1)
                      (not a!2)
                      (not a!3)
                      (not (= C D))))))
    (=> a!4 (Proc12 E2 B A L C))))))
(assert (forall ((A Int)
         (B Int)
         (C Int)
         (D Int)
         (E Int)
         (F Int)
         (G Int)
         (H Int)
         (I Int)
         (J Int)
         (K Int)
         (L Bool)
         (W Bool)
         (X Bool))
  (let ((a!1 (or (not X) (not (and (Proc14 K J I true H G F W E) (not W))))))
    (=> (not a!1) (Proc35 K J I X D L C B A)))))
(assert (let ((a!1 (exists ((V0 Int)
                    (V1 Int)
                    (V2 Int)
                    (V3 Bool)
                    (V4 Int)
                    (V5 Bool)
                    (V6 Int)
                    (V7 Int)
                    (V8 Int))
             (not (=> (and (Proc35 V0 V1 V2 V3 V4 V5 V6 V7 V8) (not false))
                      false)))))
  (not a!1)))

(check-sat)
